5,7	0,0	15,2	8,1	0,0	0,0	0,0	0,0	0,0	15,6
12,4	5,2	0,0	10,2	18,4	0,0	0,0	18,2	0,0	0,0
0,0	0,0	10,5	0,0	13,2	7,2	0,0	0,0	11,4	0,0
19,8	0,0	8,3	0,0	0,0	0,0	18,0	0,0	0,0	0,0
0,0	13,3	0,0	9,3	19,3	0,0	0,0	17,1	0,0	0,0
0,0	16,9	18,6	0,0	14,5	14,2	0,0	0,0	13,0	0,0
0,0	11,7	0,0	10,3	0,0	0,0	9,9	0,0	0,0	12,4
12,2	0,0	11,3	0,0	0,0	0,0	0,0	0,0	0,0	9,1
0,0	10,6	0,0	8,7	15,3	0,0	0,0	8,4	0,0	0,0
0,0	0,0	14,0	0,0	0,0	15,3	17,4	0,0	0,0	5,3
									
3,0	5,0	4,5	2,8	3,5	4,0	4,4	3,7	2,8	2,7
